c turning on binary mode checking
c parsing input formula with 2139 variables and 9000 clauses
c finished parsing, read 47492559 bytes from proof file
c detected empty clause; start verification via backward checking
c 6903 of 9000 clauses in core                            
c 492096 of 686660 lemmas in core using 15459802 resolution steps
c 0 RAT lemmas in core; 235919 redundant literals in core lemmas
s VERIFIED
c verification time: 66.316 seconds
